num_offers = 25;
num_halls = 10;
start=[8,10,4,20,9,62,13,26,7,50,35,71,35,19,49,39,78,21,24,9,68,62,34,1,35];
end=[21,99,80,69,85,86,78,33,12,94,44,80,92,85,80,86,89,34,87,84,84,79,89,85,53];
price=[1192,2879,4917,2765,7448,2457,2055,546,459,3584,930,852,5626,3603,2396,2687,131,834,2905,5988,170,997,1701,2330,316];
requirement=[716,926,225,375,757,638,331,636,791,316,812,213,520,749,589,357,703,676,500,235,655,516,877,584,391];
capacity=[422,881,452,862,639,945,841,211,683,433];
